NAME          
ROWS
 N  OBJ
 L  c2
 L  c3
 L  c4
 L  c5
 L  c6
 G  c1
COLUMNS
    ss[1]     c1        1
    ss[1]     OBJ       1000
    s[1]      c2        1
    s[1]      OBJ       -1000
    s[2]      c3        1
    s[2]      OBJ       -1000
    s[3]      c4        1
    s[3]      OBJ       -1000
    s[4]      c5        1
    s[4]      OBJ       -1000
    s[5]      c6        1
    s[5]      OBJ       -1000
    MARKER    'MARKER'                 'INTORG'
    x[1]      c2        884
    x[1]      c3        203
    x[1]      c4        330
    x[1]      c5        536
    x[1]      c6        959
    x[1]      c1        556
    x[1]      OBJ       -383
    x[2]      c2        667
    x[2]      c3        685
    x[2]      c4        574
    x[2]      c5        826
    x[2]      c6        48
    x[2]      c1        125
    x[2]      OBJ       -751
    x[3]      c2        13
    x[3]      c3        977
    x[3]      c4        440
    x[3]      c5        575
    x[3]      c6        262
    x[3]      c1        736
    x[3]      OBJ       -96
    x[4]      c2        143
    x[4]      c3        28
    x[4]      c4        922
    x[4]      c5        44
    x[4]      c6        398
    x[4]      c1        557
    x[4]      OBJ       -63
    x[5]      c2        333
    x[5]      c3        292
    x[5]      c4        341
    x[5]      c5        727
    x[5]      c6        847
    x[5]      c1        301
    x[5]      OBJ       -268
    x[6]      c2        464
    x[6]      c3        95
    x[6]      c4        701
    x[6]      c5        349
    x[6]      c6        828
    x[6]      c1        6
    x[6]      OBJ       -913
    x[7]      c2        938
    x[7]      c3        558
    x[7]      c4        979
    x[7]      c5        455
    x[7]      c6        624
    x[7]      c1        111
    x[7]      OBJ       -605
    x[8]      c2        225
    x[8]      c3        427
    x[8]      c4        974
    x[8]      c5        181
    x[8]      c6        807
    x[8]      c1        16
    x[8]      OBJ       -744
    x[9]      c2        37
    x[9]      c3        542
    x[9]      c4        747
    x[9]      c5        668
    x[9]      c6        239
    x[9]      c1        704
    x[9]      OBJ       -107
    x[10]     c2        193
    x[10]     c3        770
    x[10]     c4        47
    x[10]     c5        274
    x[10]     c6        504
    x[10]     c1        952
    x[10]     OBJ       203
    x[11]     c2        531
    x[11]     c3        669
    x[11]     c4        69
    x[11]     c5        999
    x[11]     c6        52
    x[11]     c1        408
    x[11]     OBJ       -309
    x[12]     c2        750
    x[12]     c3        14
    x[12]     c4        117
    x[12]     c5        225
    x[12]     c6        678
    x[12]     c1        492
    x[12]     OBJ       -31
    x[13]     c2        933
    x[13]     c3        59
    x[13]     c4        523
    x[13]     c5        27
    x[13]     c6        770
    x[13]     c1        163
    x[13]     OBJ       -638
    x[14]     c2        385
    x[14]     c3        63
    x[14]     c4        913
    x[14]     c5        514
    x[14]     c6        443
    x[14]     c1        938
    x[14]     OBJ       -90
    x[15]     c2        877
    x[15]     c3        520
    x[15]     c4        83
    x[15]     c5        740
    x[15]     c6        647
    x[15]     c1        315
    x[15]     OBJ       -699
    x[16]     c2        179
    x[16]     c3        206
    x[16]     c4        967
    x[16]     c5        585
    x[16]     c6        549
    x[16]     c1        949
    x[16]     OBJ       127
    x[17]     c2        639
    x[17]     c3        14
    x[17]     c4        65
    x[17]     c5        804
    x[17]     c6        844
    x[17]     c1        670
    x[17]     OBJ       -9
    x[18]     c2        427
    x[18]     c3        447
    x[18]     c4        647
    x[18]     c5        994
    x[18]     c6        811
    x[18]     c1        1000
    x[18]     OBJ       -112
    x[19]     c2        665
    x[19]     c3        372
    x[19]     c4        983
    x[19]     c5        607
    x[19]     c6        306
    x[19]     c1        457
    x[19]     OBJ       -548
    x[20]     c2        599
    x[20]     c3        816
    x[20]     c4        762
    x[20]     c5        477
    x[20]     c6        5
    x[20]     c1        816
    x[20]     OBJ       -60
    x[21]     c2        755
    x[21]     c3        504
    x[21]     c4        384
    x[21]     c5        349
    x[21]     c6        504
    x[21]     c1        357
    x[21]     OBJ       -499
    x[22]     c2        774
    x[22]     c3        271
    x[22]     c4        47
    x[22]     c5        357
    x[22]     c6        120
    x[22]     c1        495
    x[22]     OBJ       -268
    x[23]     c2        25
    x[23]     c3        342
    x[23]     c4        89
    x[23]     c5        406
    x[23]     c6        491
    x[23]     c1        916
    x[23]     OBJ       435
    x[24]     c2        165
    x[24]     c3        650
    x[24]     c4        885
    x[24]     c5        275
    x[24]     c6        324
    x[24]     c1        852
    x[24]     OBJ       -98
    x[25]     c2        129
    x[25]     c3        669
    x[25]     c4        21
    x[25]     c5        522
    x[25]     c6        851
    x[25]     c1        614
    x[25]     OBJ       -203
    x[26]     c2        403
    x[26]     c3        658
    x[26]     c4        745
    x[26]     c5        548
    x[26]     c6        850
    x[26]     c1        161
    x[26]     OBJ       -743
    x[27]     c2        49
    x[27]     c3        326
    x[27]     c4        349
    x[27]     c5        337
    x[27]     c6        64
    x[27]     c1        60
    x[27]     OBJ       -558
    x[28]     c2        681
    x[28]     c3        976
    x[28]     c4        741
    x[28]     c5        656
    x[28]     c6        418
    x[28]     c1        382
    x[28]     OBJ       -684
    x[29]     c2        443
    x[29]     c3        398
    x[29]     c4        188
    x[29]     c5        10
    x[29]     c6        533
    x[29]     c1        373
    x[29]     OBJ       -255
    x[30]     c2        148
    x[30]     c3        902
    x[30]     c4        3
    x[30]     c5        136
    x[30]     c6        450
    x[30]     c1        570
    x[30]     OBJ       -82
    x[31]     c2        141
    x[31]     c3        645
    x[31]     c4        526
    x[31]     c5        831
    x[31]     c6        443
    x[31]     c1        182
    x[31]     OBJ       -466
    x[32]     c2        484
    x[32]     c3        932
    x[32]     c4        236
    x[32]     c5        666
    x[32]     c6        561
    x[32]     c1        934
    x[32]     OBJ       -104
    x[33]     c2        414
    x[33]     c3        868
    x[33]     c4        974
    x[33]     c5        881
    x[33]     c6        693
    x[33]     c1        129
    x[33]     OBJ       -730
    x[34]     c2        868
    x[34]     c3        6
    x[34]     c4        270
    x[34]     c5        373
    x[34]     c6        112
    x[34]     c1        542
    x[34]     OBJ       -279
    x[35]     c2        86
    x[35]     c3        533
    x[35]     c4        366
    x[35]     c5        172
    x[35]     c6        788
    x[35]     c1        767
    x[35]     OBJ       137
    x[36]     c2        295
    x[36]     c3        719
    x[36]     c4        292
    x[36]     c5        185
    x[36]     c6        647
    x[36]     c1        964
    x[36]     OBJ       201
    x[37]     c2        484
    x[37]     c3        241
    x[37]     c4        441
    x[37]     c5        876
    x[37]     c6        281
    x[37]     c1        896
    x[37]     OBJ       317
    x[38]     c2        38
    x[38]     c3        778
    x[38]     c4        594
    x[38]     c5        494
    x[38]     c6        754
    x[38]     c1        350
    x[38]     OBJ       -270
    x[39]     c2        419
    x[39]     c3        244
    x[39]     c4        490
    x[39]     c5        211
    x[39]     c6        385
    x[39]     c1        178
    x[39]     OBJ       -235
    x[40]     c2        833
    x[40]     c3        185
    x[40]     c4        807
    x[40]     c5        697
    x[40]     c6        221
    x[40]     c1        557
    x[40]     OBJ       -219
    x[41]     c2        706
    x[41]     c3        63
    x[41]     c4        326
    x[41]     c5        648
    x[41]     c6        576
    x[41]     c1        975
    x[41]     OBJ       -84
    x[42]     c2        70
    x[42]     c3        369
    x[42]     c4        546
    x[42]     c5        224
    x[42]     c6        368
    x[42]     c1        70
    x[42]     OBJ       -652
    x[43]     c2        481
    x[43]     c3        152
    x[43]     c4        687
    x[43]     c5        826
    x[43]     c6        462
    x[43]     c1        226
    x[43]     OBJ       -545
    x[44]     c2        689
    x[44]     c3        114
    x[44]     c4        707
    x[44]     c5        585
    x[44]     c6        869
    x[44]     c1        356
    x[44]     OBJ       -472
    x[45]     c2        914
    x[45]     c3        541
    x[45]     c4        593
    x[45]     c5        233
    x[45]     c6        785
    x[45]     c1        404
    x[45]     OBJ       -619
    x[46]     c2        218
    x[46]     c3        202
    x[46]     c4        230
    x[46]     c5        49
    x[46]     c6        664
    x[46]     c1        79
    x[46]     OBJ       -504
    x[47]     c2        803
    x[47]     c3        129
    x[47]     c4        712
    x[47]     c5        819
    x[47]     c6        701
    x[47]     c1        833
    x[47]     OBJ       -273
    x[48]     c2        867
    x[48]     c3        735
    x[48]     c4        360
    x[48]     c5        200
    x[48]     c6        542
    x[48]     c1        616
    x[48]     OBJ       -56
    x[49]     c2        416
    x[49]     c3        485
    x[49]     c4        475
    x[49]     c5        659
    x[49]     c6        176
    x[49]     c1        575
    x[49]     OBJ       -123
    x[50]     c2        47
    x[50]     c3        109
    x[50]     c4        261
    x[50]     c5        61
    x[50]     c6        988
    x[50]     c1        987
    x[50]     OBJ       609
    x[51]     c2        120
    x[51]     c3        954
    x[51]     c4        522
    x[51]     c5        644
    x[51]     c6        516
    x[51]     c1        340
    x[51]     OBJ       -501
    x[52]     c2        290
    x[52]     c3        307
    x[52]     c4        314
    x[52]     c5        677
    x[52]     c6        903
    x[52]     c1        794
    x[52]     OBJ       -42
    x[53]     c2        781
    x[53]     c3        375
    x[53]     c4        543
    x[53]     c5        723
    x[53]     c6        35
    x[53]     c1        321
    x[53]     OBJ       -247
    x[54]     c2        459
    x[54]     c3        460
    x[54]     c4        31
    x[54]     c5        955
    x[54]     c6        445
    x[54]     c1        337
    x[54]     OBJ       -522
    x[55]     c2        520
    x[55]     c3        397
    x[55]     c4        445
    x[55]     c5        163
    x[55]     c6        833
    x[55]     c1        580
    x[55]     OBJ       -62
    x[56]     c2        25
    x[56]     c3        779
    x[56]     c4        909
    x[56]     c5        643
    x[56]     c6        997
    x[56]     c1        920
    x[56]     OBJ       242
    x[57]     c2        173
    x[57]     c3        203
    x[57]     c4        670
    x[57]     c5        171
    x[57]     c6        392
    x[57]     c1        425
    x[57]     OBJ       -119
    x[58]     c2        911
    x[58]     c3        265
    x[58]     c4        188
    x[58]     c5        132
    x[58]     c6        509
    x[58]     c1        170
    x[58]     OBJ       -502
    x[59]     c2        244
    x[59]     c3        217
    x[59]     c4        483
    x[59]     c5        859
    x[59]     c6        38
    x[59]     c1        955
    x[59]     OBJ       126
    x[60]     c2        618
    x[60]     c3        415
    x[60]     c4        676
    x[60]     c5        390
    x[60]     c6        772
    x[60]     c1        581
    x[60]     OBJ       -220
    x[61]     c2        193
    x[61]     c3        705
    x[61]     c4        218
    x[61]     c5        936
    x[61]     c6        764
    x[61]     c1        739
    x[61]     OBJ       -142
    x[62]     c2        248
    x[62]     c3        630
    x[62]     c4        919
    x[62]     c5        767
    x[62]     c6        616
    x[62]     c1        622
    x[62]     OBJ       -431
    x[63]     c2        664
    x[63]     c3        485
    x[63]     c4        742
    x[63]     c5        501
    x[63]     c6        764
    x[63]     c1        473
    x[63]     OBJ       -332
    x[64]     c2        674
    x[64]     c3        889
    x[64]     c4        751
    x[64]     c5        680
    x[64]     c6        151
    x[64]     c1        789
    x[64]     OBJ       -89
    x[65]     c2        452
    x[65]     c3        849
    x[65]     c4        685
    x[65]     c5        403
    x[65]     c6        931
    x[65]     c1        946
    x[65]     OBJ       -126
    x[66]     c2        641
    x[66]     c3        958
    x[66]     c4        583
    x[66]     c5        836
    x[66]     c6        609
    x[66]     c1        499
    x[66]     OBJ       -573
    x[67]     c2        457
    x[67]     c3        66
    x[67]     c4        876
    x[67]     c5        447
    x[67]     c6        736
    x[67]     c1        666
    x[67]     OBJ       -267
    x[68]     c2        323
    x[68]     c3        175
    x[68]     c4        687
    x[68]     c5        466
    x[68]     c6        248
    x[68]     c1        546
    x[68]     OBJ       -49
    x[69]     c2        286
    x[69]     c3        57
    x[69]     c4        592
    x[69]     c5        617
    x[69]     c6        828
    x[69]     c1        630
    x[69]     OBJ       -1
    x[70]     c2        434
    x[70]     c3        39
    x[70]     c4        3
    x[70]     c5        879
    x[70]     c6        923
    x[70]     c1        997
    x[70]     OBJ       410
    x[71]     c2        541
    x[71]     c3        234
    x[71]     c4        681
    x[71]     c5        501
    x[71]     c6        776
    x[71]     c1        462
    x[71]     OBJ       -436
    x[72]     c2        904
    x[72]     c3        809
    x[72]     c4        643
    x[72]     c5        244
    x[72]     c6        198
    x[72]     c1        750
    x[72]     OBJ       -272
    x[73]     c2        866
    x[73]     c3        17
    x[73]     c4        946
    x[73]     c5        468
    x[73]     c6        800
    x[73]     c1        841
    x[73]     OBJ       -81
    x[74]     c2        326
    x[74]     c3        4
    x[74]     c4        627
    x[74]     c5        921
    x[74]     c6        238
    x[74]     c1        795
    x[74]     OBJ       -75
    x[75]     c2        624
    x[75]     c3        402
    x[75]     c4        352
    x[75]     c5        282
    x[75]     c6        893
    x[75]     c1        2
    x[75]     OBJ       -562
    x[76]     c2        445
    x[76]     c3        882
    x[76]     c4        585
    x[76]     c5        147
    x[76]     c6        753
    x[76]     c1        522
    x[76]     OBJ       -172
    x[77]     c2        615
    x[77]     c3        336
    x[77]     c4        135
    x[77]     c5        229
    x[77]     c6        102
    x[77]     c1        778
    x[77]     OBJ       121
    x[78]     c2        296
    x[78]     c3        109
    x[78]     c4        255
    x[78]     c5        893
    x[78]     c6        461
    x[78]     c1        42
    x[78]     OBJ       -682
    x[79]     c2        600
    x[79]     c3        696
    x[79]     c4        985
    x[79]     c5        261
    x[79]     c6        654
    x[79]     c1        714
    x[79]     OBJ       -245
    x[80]     c2        614
    x[80]     c3        222
    x[80]     c4        323
    x[80]     c5        61
    x[80]     c6        623
    x[80]     c1        645
    x[80]     OBJ       -95
    x[81]     c2        673
    x[81]     c3        805
    x[81]     c4        404
    x[81]     c5        344
    x[81]     c6        383
    x[81]     c1        855
    x[81]     OBJ       291
    x[82]     c2        923
    x[82]     c3        893
    x[82]     c4        328
    x[82]     c5        680
    x[82]     c6        569
    x[82]     c1        396
    x[82]     OBJ       -405
    x[83]     c2        149
    x[83]     c3        212
    x[83]     c4        473
    x[83]     c5        100
    x[83]     c6        736
    x[83]     c1        768
    x[83]     OBJ       -90
    x[84]     c2        493
    x[84]     c3        768
    x[84]     c4        79
    x[84]     c5        685
    x[84]     c6        412
    x[84]     c1        392
    x[84]     OBJ       -182
    x[85]     c2        773
    x[85]     c3        389
    x[85]     c4        803
    x[85]     c5        805
    x[85]     c6        602
    x[85]     c1        141
    x[85]     OBJ       -540
    x[86]     c2        604
    x[86]     c3        15
    x[86]     c4        928
    x[86]     c5        869
    x[86]     c6        224
    x[86]     c1        544
    x[86]     OBJ       -198
    x[87]     c2        811
    x[87]     c3        848
    x[87]     c4        525
    x[87]     c5        385
    x[87]     c6        175
    x[87]     c1        847
    x[87]     OBJ       121
    x[88]     c2        520
    x[88]     c3        968
    x[88]     c4        957
    x[88]     c5        159
    x[88]     c6        315
    x[88]     c1        263
    x[88]     OBJ       -777
    x[89]     c2        343
    x[89]     c3        551
    x[89]     c4        147
    x[89]     c5        296
    x[89]     c6        432
    x[89]     c1        325
    x[89]     OBJ       -116
    x[90]     c2        304
    x[90]     c3        367
    x[90]     c4        163
    x[90]     c5        355
    x[90]     c6        315
    x[90]     c1        227
    x[90]     OBJ       -468
    x[91]     c2        147
    x[91]     c3        456
    x[91]     c4        940
    x[91]     c5        535
    x[91]     c6        971
    x[91]     c1        765
    x[91]     OBJ       -263
    x[92]     c2        576
    x[92]     c3        590
    x[92]     c4        710
    x[92]     c5        610
    x[92]     c6        224
    x[92]     c1        128
    x[92]     OBJ       -425
    x[93]     c2        444
    x[93]     c3        553
    x[93]     c4        373
    x[93]     c5        856
    x[93]     c6        492
    x[93]     c1        10
    x[93]     OBJ       -580
    x[94]     c2        349
    x[94]     c3        946
    x[94]     c4        346
    x[94]     c5        103
    x[94]     c6        34
    x[94]     c1        973
    x[94]     OBJ       184
    x[95]     c2        941
    x[95]     c3        672
    x[95]     c4        279
    x[95]     c5        203
    x[95]     c6        355
    x[95]     c1        162
    x[95]     OBJ       -704
    x[96]     c2        809
    x[96]     c3        241
    x[96]     c4        320
    x[96]     c5        120
    x[96]     c6        433
    x[96]     c1        743
    x[96]     OBJ       337
    x[97]     c2        639
    x[97]     c3        576
    x[97]     c4        942
    x[97]     c5        584
    x[97]     c6        34
    x[97]     c1        208
    x[97]     OBJ       -563
    x[98]     c2        361
    x[98]     c3        517
    x[98]     c4        235
    x[98]     c5        289
    x[98]     c6        408
    x[98]     c1        223
    x[98]     OBJ       -554
    x[99]     c2        366
    x[99]     c3        640
    x[99]     c4        426
    x[99]     c5        50
    x[99]     c6        586
    x[99]     c1        981
    x[99]     OBJ       385
    x[100]    c2        690
    x[100]    c3        822
    x[100]    c4        252
    x[100]    c5        744
    x[100]    c6        295
    x[100]    c1        143
    x[100]    OBJ       -696
RHS
    rhs       c2        23993
    rhs       c3        23134
    rhs       c4        25264
    rhs       c5        24281
    rhs       c6        25873
    rhs       c1        26324
RANGES
BOUNDS
 LO bounds    ss[1]     0
 PL bounds    ss[1]
 MI bounds    s[1]
 UP bounds    s[1]      0
 MI bounds    s[2]
 UP bounds    s[2]      0
 MI bounds    s[3]
 UP bounds    s[3]      0
 MI bounds    s[4]
 UP bounds    s[4]      0
 MI bounds    s[5]
 UP bounds    s[5]      0
 BV bounds    x[1]
 BV bounds    x[2]
 BV bounds    x[3]
 BV bounds    x[4]
 BV bounds    x[5]
 BV bounds    x[6]
 BV bounds    x[7]
 BV bounds    x[8]
 BV bounds    x[9]
 BV bounds    x[10]
 BV bounds    x[11]
 BV bounds    x[12]
 BV bounds    x[13]
 BV bounds    x[14]
 BV bounds    x[15]
 BV bounds    x[16]
 BV bounds    x[17]
 BV bounds    x[18]
 BV bounds    x[19]
 BV bounds    x[20]
 BV bounds    x[21]
 BV bounds    x[22]
 BV bounds    x[23]
 BV bounds    x[24]
 BV bounds    x[25]
 BV bounds    x[26]
 BV bounds    x[27]
 BV bounds    x[28]
 BV bounds    x[29]
 BV bounds    x[30]
 BV bounds    x[31]
 BV bounds    x[32]
 BV bounds    x[33]
 BV bounds    x[34]
 BV bounds    x[35]
 BV bounds    x[36]
 BV bounds    x[37]
 BV bounds    x[38]
 BV bounds    x[39]
 BV bounds    x[40]
 BV bounds    x[41]
 BV bounds    x[42]
 BV bounds    x[43]
 BV bounds    x[44]
 BV bounds    x[45]
 BV bounds    x[46]
 BV bounds    x[47]
 BV bounds    x[48]
 BV bounds    x[49]
 BV bounds    x[50]
 BV bounds    x[51]
 BV bounds    x[52]
 BV bounds    x[53]
 BV bounds    x[54]
 BV bounds    x[55]
 BV bounds    x[56]
 BV bounds    x[57]
 BV bounds    x[58]
 BV bounds    x[59]
 BV bounds    x[60]
 BV bounds    x[61]
 BV bounds    x[62]
 BV bounds    x[63]
 BV bounds    x[64]
 BV bounds    x[65]
 BV bounds    x[66]
 BV bounds    x[67]
 BV bounds    x[68]
 BV bounds    x[69]
 BV bounds    x[70]
 BV bounds    x[71]
 BV bounds    x[72]
 BV bounds    x[73]
 BV bounds    x[74]
 BV bounds    x[75]
 BV bounds    x[76]
 BV bounds    x[77]
 BV bounds    x[78]
 BV bounds    x[79]
 BV bounds    x[80]
 BV bounds    x[81]
 BV bounds    x[82]
 BV bounds    x[83]
 BV bounds    x[84]
 BV bounds    x[85]
 BV bounds    x[86]
 BV bounds    x[87]
 BV bounds    x[88]
 BV bounds    x[89]
 BV bounds    x[90]
 BV bounds    x[91]
 BV bounds    x[92]
 BV bounds    x[93]
 BV bounds    x[94]
 BV bounds    x[95]
 BV bounds    x[96]
 BV bounds    x[97]
 BV bounds    x[98]
 BV bounds    x[99]
 BV bounds    x[100]
ENDATA
